WARNING: for repeatability, setting FPU to use double precision
============================[ Problem Statistics ]=============================
|                                                                             |
|  Number of variables:        193089                                         |
|  Number of clauses:          457123                                         |
|  Parse time:                   0.15 s                                       |
|                                                                             |
============================[ Search Statistics ]==============================
| Conflicts |          ORIGINAL         |          LEARNT          | Progress |
|           |    Vars  Clauses Literals |    Limit  Clauses Lit/Cl |          |
===============================================================================
|       100 |  108122   440672   987266 |   161579      100     19 | 44.004 % |
|       250 |  108122   440672   987266 |   177737      250     40 | 44.004 % |
|       475 |  108122   440672   987266 |   195511      475     72 | 44.004 % |
|       812 |  108122   440672   987266 |   215062      812     67 | 44.004 % |
===============================================================================
restarts              : 8
conflicts             : 1276           (2170 /sec)
decisions             : 17391          (0.00 % random) (29575 /sec)
propagations          : 3093501        (5260734 /sec)
conflict literals     : 77825          (5.77 % deleted)
Memory used           : 52.00 MB
CPU time              : 0.588036 s

SATISFIABLE
